2	25
49	816	422	586	117	881	322	7	829	237	772	8	677	918	311	8	187	337	996	227	355	55	290	356	851	
750	294	757	176	582	89	59	998	727	724	304	152	591	858	976	526	742	436	885	428	237	667	44	164	206	
1547	1547	
